Route #1: 3 86 89 103 75 93 91
Route #2: 88 27 9 54 19 63 52
Route #3: 7 22 45 29 6
Route #4: 124 30 43 39 67
Route #5: 84 25 77 57 13 56 62
Route #6: 60 35 82 113 20 50
Route #7: 78 119 115 117 14 74 70 53
Route #8: 102 26 71 126 36 107 128 122
Route #9: 108 104 92 49 73 100
Route #10: 11 41 40 55 61 85 76 79 10
Route #11: 46 33 21 34 2 48 58 101 17 110
Route #12: 65 105 116 95 96 72
Route #13: 125 16 12 114 32 112 81
Route #14: 31 97 69 120 51 109 83
Route #15: 99 42 8 37 28 118
Route #16: 24 38 106 5 123 127 47
Route #17: 80 68 98 4 111 94 121 87 64
Route #18: 15 90 44 59 18 66
Route #19: 1 23
Cost 32927
